solution status: optimal solution found
objective value:                     159379.763040841
d11(0,0)                                            1 	(obj:0)
d11(1,1)                                            1 	(obj:0)
d11(1,2)                                            1 	(obj:0)
d11(2,3)                                            1 	(obj:0)
d11(2,4)                                            1 	(obj:0)
d11(2,5)                                            1 	(obj:0)
d11(3,7)                                            1 	(obj:0)
d11(3,8)                                            1 	(obj:0)
d11(3,9)                                            1 	(obj:0)
d11(3,10)                                           1 	(obj:0)
d11(3,11)                                           1 	(obj:0)
d11(3,13)                                           1 	(obj:0)
d11(4,19)                                           1 	(obj:0)
d11(4,21)                                           1 	(obj:0)
d11(4,23)                                           1 	(obj:0)
d11(4,25)                                           1 	(obj:0)
d11(4,27)                                           1 	(obj:0)
d11(4,29)                                           1 	(obj:0)
d12(4,16)                                           1 	(obj:0)
d12(4,18)                                           1 	(obj:0)
d12(4,20)                                           1 	(obj:0)
d12(4,22)                                           1 	(obj:0)
d12(4,24)                                           1 	(obj:0)
d12(4,26)                                           1 	(obj:0)
d12(4,28)                                           1 	(obj:0)
d12(4,30)                                           1 	(obj:0)
d21(2,3)                                            1 	(obj:0)
d21(3,7)                                            1 	(obj:0)
d21(3,8)                                            1 	(obj:0)
d21(3,9)                                            1 	(obj:0)
d21(3,11)                                           1 	(obj:0)
d21(4,15)                                           1 	(obj:0)
d21(4,16)                                           1 	(obj:0)
d21(4,17)                                           1 	(obj:0)
d21(4,18)                                           1 	(obj:0)
d21(4,19)                                           1 	(obj:0)
d21(4,20)                                           1 	(obj:0)
d21(4,23)                                           1 	(obj:0)
d21(4,24)                                           1 	(obj:0)
y2(4,16)                             1385.48851144897 	(obj:0)
y2(4,18)                             1385.48851144895 	(obj:0)
y2(4,20)                             1385.48851144897 	(obj:0)
y2(4,22)                             1385.48851144895 	(obj:0)
y2(4,24)                             1385.48851144897 	(obj:0)
y2(4,26)                             1385.48851144897 	(obj:0)
y2(4,28)                             1385.48851144895 	(obj:0)
y2(4,30)                             1385.48851144895 	(obj:0)
STE(1,1)                             3401.99999999856 	(obj:0)
STE(0,0)                                         6300 	(obj:0)
STE(1,2)                             5060.24989888737 	(obj:0)
STE(2,3)                             1239.75010110971 	(obj:0)
STE(2,4)                             2897.99999999853 	(obj:0)
STE(2,5)                             2897.99999999853 	(obj:0)
STE(2,6)                             4556.24989888737 	(obj:0)
STE(3,7)                            -922.499797779137 	(obj:0)
STE(3,8)                             735.750101109709 	(obj:0)
STE(3,9)                             735.750101109681 	(obj:0)
STE(3,10)                            2393.99999999853 	(obj:0)
STE(3,11)                            735.750101109682 	(obj:0)
STE(3,12)                            2393.99999999853 	(obj:0)
STE(3,13)                            2393.99999999853 	(obj:0)
STE(3,14)                            4052.24989888737 	(obj:0)
STE(4,15)                           -1426.49979777914 	(obj:0)
STE(4,16)                           -110.285711902615 	(obj:0)
STE(4,17)                            231.750101109709 	(obj:0)
STE(4,18)                            1547.96418698622 	(obj:0)
STE(4,19)                            231.750101109681 	(obj:0)
STE(4,20)                             1547.9641869862 	(obj:0)
STE(4,21)                            1889.99999999853 	(obj:0)
STE(4,22)                            3206.21408587503 	(obj:0)
STE(4,23)                            231.750101109682 	(obj:0)
STE(4,24)                             1547.9641869862 	(obj:0)
STE(4,25)                            1889.99999999853 	(obj:0)
STE(4,26)                            3206.21408587505 	(obj:0)
STE(4,27)                            1889.99999999853 	(obj:0)
STE(4,28)                            3206.21408587503 	(obj:0)
STE(4,29)                            3548.24989888737 	(obj:0)
STE(4,30)                            4864.46398476388 	(obj:0)
y1(3,11)                             1492.42490899996 	(obj:0)
y1(3,13)                             1492.42490899996 	(obj:0)
AVE(1)                               3265.91696791192 	(obj:0)
AVE(2)                               3332.74178563731 	(obj:0)
AVE(3)                               3444.11697932125 	(obj:0)
WB(4)                                3399.56511093517 	(obj:0)
AVE(4)                               3399.56511093778 	(obj:0)
WG(1)                                3265.91696791192 	(obj:10)
WG(2)                                3332.74178563731 	(obj:10)
WG(3)                                3444.11697932125 	(obj:10)
WG(4)                            2.61340518386997e-009 	(obj:10)
BG(1)                                1606.06439943638 	(obj:10)
BG(2)                                863.550713342282 	(obj:10)
BG(3)                                752.175519658342 	(obj:10)
BG(4)                                 2673.4099387729 	(obj:10)
y1(1,1)                               2154.6000000013 	(obj:0)
y1(1,2)                              662.175091001364 	(obj:0)
y1(2,3)                              1492.42490899996 	(obj:0)
y1(2,5)                              1492.42490899996 	(obj:0)
y1(3,7)                              1492.42490899996 	(obj:0)
y1(3,9)                              1492.42490899996 	(obj:0)
